<number of tasks>
21

<cycle time>
35

<task times>
1 4
2 3
3 9
4 5
5 9
6 4
7 8
8 7
9 5
10 1
11 3
12 1
13 5
14 3
15 5
16 3
17 13
18 5
19 2
20 3
21 7

<precedence relations>
1,2
1,3
2,21
3,4
4,5
4,21
5,6
5,7
6,8
7,8
7,14
8,9
9,10
9,11
9,12
9,13
10,15
11,15
12,15
13,17
13,18
14,19
15,16
15,18
16,17
17,20
18,19

<setup times forward>
1,2:2
2,3:2
2,4:2
2,5:2
2,7:2
2,10:2
2,11:2
2,15:2
2,16:2
2,17:2
2,18:2
2,19:2
2,20:2
3,2:2
4,2:2
4,21:2
5,2:2
5,6:2
5,21:2
6,7:2
7,2:2
7,6:2
7,8:2
7,14:2
7,21:2
9,10:2
9,11:2
10,2:2
10,12:2
10,13:2
10,14:2
10,21:2
11,2:2
11,12:2
11,13:2
11,14:2
11,21:2
12,10:2
12,11:2
12,15:2
13,10:2
13,11:2
13,15:2
13,16:2
13,17:2
13,18:2
14,10:2
14,11:2
14,15:2
14,16:2
14,17:2
14,18:2
14,19:2
14,20:2
15,2:2
15,13:2
15,14:2
15,21:2
16,2:2
16,13:2
16,14:2
16,21:2
17,2:2
17,14:2
17,21:2
18,2:2
18,14:2
18,21:2
19,2:2
19,21:2
20,2:2
20,14:2
20,21:2
21,5:2
21,7:2
21,10:2
21,11:2
21,15:2
21,16:2
21,17:2
21,18:2
21,19:2
21,20:2

<setup times backward>
2,1:2
2,3:2
2,4:2
2,5:2
2,7:2
2,10:2
2,11:2
2,15:2
2,16:2
2,17:2
2,18:2
2,19:2
2,20:2
6,1:2
6,3:2
6,4:2
6,5:2
6,7:2
8,1:2
8,3:2
8,4:2
8,5:2
8,7:2
9,1:2
9,3:2
9,4:2
9,5:2
9,7:2
12,1:2
12,3:2
12,4:2
12,5:2
12,7:2
12,10:2
12,11:2
13,1:2
13,3:2
13,4:2
13,5:2
13,7:2
13,10:2
13,11:2
13,15:2
13,16:2
14,1:2
14,3:2
14,4:2
14,5:2
14,7:2
14,10:2
14,11:2
14,15:2
14,16:2
14,17:2
14,18:2
14,20:2
21,1:2
21,3:2
21,4:2
21,5:2
21,7:2
21,10:2
21,11:2
21,15:2
21,16:2
21,17:2
21,18:2
21,19:2
21,20:2

<end>

<optimal SALBP-1 value>
3


<rand seed>
467321153

<Lower Bounds>
Lm1=3
Lms1=3
Lm2=0
Lm3=1
Lm4=3
Best=3

<Optimal Stations (Iterations: 10)>
4
